(set-info :source |printed by MathSAT|)
(declare-fun A_0 () Int)
(declare-fun .y.9 () Int)
(declare-fun B_0 () Int)
(declare-fun .y.10 () Int)
(declare-fun E () (Array Int Int))
(declare-fun .y.11 () (Array Int Int))
(declare-fun D_0 () Int)
(declare-fun .y.12 () Int)
(declare-fun C_0 () Int)
(declare-fun .y.13 () Int)
(declare-fun F () (Array Int Int))
(declare-fun .y.14 () (Array Int Int))
(declare-fun .loc.8 () Bool)
(declare-fun .loc.15 () Bool)
(define-fun .def_8 () Int (! A_0 :next |.y.9|))
(define-fun .def_10 () Int (! B_0 :next |.y.10|))
(define-fun .def_12 () (Array Int Int) (! E :next |.y.11|))
(define-fun .def_14 () Int (! D_0 :next |.y.12|))
(define-fun .def_16 () Int (! C_0 :next |.y.13|))
(define-fun .def_18 () (Array Int Int) (! F :next |.y.14|))
(define-fun .def_20 () Bool (! .loc.8 :next |.loc.15|))
(define-fun .def_96 () Bool (= .def_14 .def_16))
(define-fun .def_95 () Bool (= .def_10 0))
(define-fun .def_97 () Bool (and .def_95 .def_96))
(define-fun .def_94 () Bool (= .def_8 .def_14))
(define-fun .def_98 () Bool (and .def_94 .def_97))
(define-fun .def_83 () Bool (= .def_12 .def_18))
(define-fun .def_99 () Bool (and .def_83 .def_98))
(define-fun .def_92 () Bool (! (not .def_20) :invar-property 0))
(define-fun .def_100 () Bool (! (and .def_92 .def_99) :init true))
(define-fun .def_27 () Int (* 4 .def_10))
(define-fun .def_28 () Int (+ .def_8 .def_27))
(define-fun .def_29 () Int (select .def_12 .def_28))
(define-fun .def_30 () Bool (= .def_29 0))
(define-fun .def_23 () Int (select .def_18 .def_16))
(define-fun .def_24 () Bool (= .def_23 0))
(define-fun .def_86 () Bool (and .def_24 .def_30))
(define-fun .def_84 () Bool (not .def_83))
(define-fun .def_78 () Real (* (/ 1 4) (to_real .def_16)))
(define-fun .def_76 () Real (* (- (/ 1 4)) (to_real .def_14)))
(define-fun .def_79 () Real (+ .def_76 .def_78))
(define-fun .def_80 () Int (to_int .def_79))
(define-fun .def_81 () Bool (= .def_10 .def_80))
(define-fun .def_82 () Bool (not .def_81))
(define-fun .def_85 () Bool (or .def_82 .def_84))
(define-fun .def_87 () Bool (and .def_85 .def_86))
(define-fun .def_88 () Bool (and .loc.15 .def_87))
(define-fun .def_51 () Bool (not .def_30))
(define-fun .def_25 () Bool (not .def_24))
(define-fun .def_67 () Bool (and .def_25 .def_51))
(define-fun .def_32 () Bool (not .loc.15))
(define-fun .def_68 () Bool (and .def_32 .def_67))
(define-fun .def_34 () Bool (= .def_14 .y.12))
(define-fun .def_69 () Bool (and .def_34 .def_68))
(define-fun .def_36 () Bool (= .def_8 .y.9))
(define-fun .def_70 () Bool (and .def_36 .def_69))
(define-fun .def_38 () (Array Int Int) (store .def_18 .def_16 0))
(define-fun .def_39 () Bool (= .y.14 .def_38))
(define-fun .def_71 () Bool (and .def_39 .def_70))
(define-fun .def_56 () Int (* (- 1) .y.10))
(define-fun .def_57 () Int (+ .def_10 .def_56))
(define-fun .def_58 () Bool (= .def_57 (- 1)))
(define-fun .def_72 () Bool (and .def_58 .def_71))
(define-fun .def_43 () Int (* (- 1) .y.13))
(define-fun .def_44 () Int (+ .def_16 .def_43))
(define-fun .def_45 () Bool (= .def_44 (- 4)))
(define-fun .def_73 () Bool (and .def_45 .def_72))
(define-fun .def_60 () (Array Int Int) (store .def_12 .def_28 0))
(define-fun .def_61 () Bool (= .y.11 .def_60))
(define-fun .def_74 () Bool (and .def_61 .def_73))
(define-fun .def_89 () Bool (or .def_74 .def_88))
(define-fun .def_65 () Bool (= .def_16 .y.13))
(define-fun .def_63 () Bool (= .def_18 .y.14))
(define-fun .def_52 () Bool (and .def_24 .def_51))
(define-fun .def_53 () Bool (and .def_32 .def_52))
(define-fun .def_54 () Bool (and .def_34 .def_53))
(define-fun .def_55 () Bool (and .def_36 .def_54))
(define-fun .def_59 () Bool (and .def_55 .def_58))
(define-fun .def_62 () Bool (and .def_59 .def_61))
(define-fun .def_64 () Bool (and .def_62 .def_63))
(define-fun .def_66 () Bool (and .def_64 .def_65))
(define-fun .def_90 () Bool (or .def_66 .def_89))
(define-fun .def_49 () Bool (= .def_10 .y.10))
(define-fun .def_47 () Bool (= .def_12 .y.11))
(define-fun .def_31 () Bool (and .def_25 .def_30))
(define-fun .def_33 () Bool (and .def_31 .def_32))
(define-fun .def_35 () Bool (and .def_33 .def_34))
(define-fun .def_37 () Bool (and .def_35 .def_36))
(define-fun .def_40 () Bool (and .def_37 .def_39))
(define-fun .def_46 () Bool (and .def_40 .def_45))
(define-fun .def_48 () Bool (and .def_46 .def_47))
(define-fun .def_50 () Bool (and .def_48 .def_49))
(define-fun .def_91 () Bool (or .def_50 .def_90))
(define-fun .def_93 () Bool (! (and .def_91 .def_92) :trans true))
(assert true)
